\ Model gr4x6_variant3
\ LP format - for model browsing. Use MPS format to capture full model detail.
Minimize
  8.31 X[0] + 13.84 X[1] + 17.14 X[2] + 5.1 X[3] + 17.09 X[4] + 15.47 X[5]
   + 10.1 X[6] + 7.33 X[7] + 19.36 X[8] + 10.05 X[9] + 6.39 X[10]
   + 6.45 X[11] + 17.71 X[12] + 14.06 X[13] + 17.11 X[14] + 15.95 X[15]
   + 13.04 X[16] + 19.6 X[17] + 10.68 X[18] + 13.28 X[19] + 17.44 X[20]
   + 14.28 X[21] + 17.93 X[22] + 13.66 X[23] + 15.57 X[24] + 5.69 X[25]
   + 8.42 X[26] + 9.34 X[27] + 6.2 X[28] + 8.49 X[29] + 6.52 X[30]
   + 9.17 X[31] + 14.54 X[32] + 10.47 X[33] + 10.55 X[34] + 8.14 X[35]
   + 9 X[36] + 19.05 X[37] + 14.72 X[38] + 14.14 X[39] + 7.57 X[40]
   + 15.94 X[41] + 7.45 X[42] + 10.69 X[43] + 19.84 X[44] + 14.6 X[45]
   + 13.35 X[46] + 15.27 X[47] + 17.64 X[48] + 16.64 X[49] + 8.44 X[50]
   + 5.48 X[51] + 9.73 X[52] + 9.02 X[53] + 8.16 X[54] + 19.14 X[55]
   + 18.15 X[56] + 9.72 X[57] + 14.83 X[58] + 10.93 X[59] + 465.82 Y[0]
   + 283.54 Y[1] + 205.95 Y[2] + 198.65 Y[3] + 324.55 Y[4] + 205.1 Y[5]
   + 333.83 Y[6] + 459.13 Y[7] + 259.76 Y[8] + 187.73 Y[9] + 499.02 Y[10]
   + 303.81 Y[11] + 136.36 Y[12] + 118.85 Y[13] + 143.86 Y[14]
   + 350.98 Y[15] + 416.83 Y[16] + 268.86 Y[17] + 125.41 Y[18]
   + 252.65 Y[19] + 498.45 Y[20] + 311.65 Y[21] + 488.43 Y[22]
   + 444.31 Y[23] + 104.59 Y[24] + 388.29 Y[25] + 372.68 Y[26]
   + 314.79 Y[27] + 206.73 Y[28] + 356.38 Y[29] + 144.62 Y[30]
   + 273.91 Y[31] + 281.49 Y[32] + 481.53 Y[33] + 450.34 Y[34]
   + 205.36 Y[35] + 300.23 Y[36] + 171.46 Y[37] + 465.05 Y[38]
   + 448.21 Y[39] + 219.38 Y[40] + 355.58 Y[41] + 343.59 Y[42]
   + 161.14 Y[43] + 405 Y[44] + 315.75 Y[45] + 411.45 Y[46] + 312.14 Y[47]
   + 100.23 Y[48] + 229.66 Y[49] + 107.79 Y[50] + 471.64 Y[51]
   + 451.49 Y[52] + 432.67 Y[53] + 223.01 Y[54] + 123.17 Y[55]
   + 451.2 Y[56] + 478.78 Y[57] + 134.26 Y[58] + 294.4 Y[59]
Subject To
 A0: X[0] + X[1] + X[2] + X[3] + X[4] + X[5] = 145.91
 A1: X[6] + X[7] + X[8] + X[9] + X[10] + X[11] = 53.75
 A2: X[12] + X[13] + X[14] + X[15] + X[16] + X[17] = 91.25
 A3: X[18] + X[19] + X[20] + X[21] + X[22] + X[23] = 83.48
 A4: X[24] + X[25] + X[26] + X[27] + X[28] + X[29] = 160.47
 A5: X[30] + X[31] + X[32] + X[33] + X[34] + X[35] = 151.5
 A6: X[36] + X[37] + X[38] + X[39] + X[40] + X[41] = 183.83
 A7: X[42] + X[43] + X[44] + X[45] + X[46] + X[47] = 63.04
 A8: X[48] + X[49] + X[50] + X[51] + X[52] + X[53] = 113.29
 A9: X[54] + X[55] + X[56] + X[57] + X[58] + X[59] = 54.47
 B0: X[0] + X[6] + X[12] + X[18] + X[24] + X[30] + X[36] + X[42] + X[48]
   + X[54] = 409.32
 B1: X[1] + X[7] + X[13] + X[19] + X[25] + X[31] + X[37] + X[43] + X[49]
   + X[55] = 552.68
 B2: X[2] + X[8] + X[14] + X[20] + X[26] + X[32] + X[38] + X[44] + X[50]
   + X[56] = 313.27
 B3: X[3] + X[9] + X[15] + X[21] + X[27] + X[33] + X[39] + X[45] + X[51]
   + X[57] = 399.42
 B4: X[4] + X[10] + X[16] + X[22] + X[28] + X[34] + X[40] + X[46] + X[52]
   + X[58] = 624.94
 B5: X[5] + X[11] + X[17] + X[23] + X[29] + X[35] + X[41] + X[47] + X[53]
   + X[59] = 572.47
 G0: X[0] - 56.92 Y[0] <= 0
 G1: X[1] - 126.06 Y[1] <= 0
 G2: X[2] - 126.58 Y[2] <= 0
 G3: X[3] - 62.84 Y[3] <= 0
 G4: X[4] - 97.53 Y[4] <= 0
 G5: X[5] - 104.98 Y[5] <= 0
 G6: X[6] - 76.51 Y[6] <= 0
 G7: X[7] - 137.24 Y[7] <= 0
 G8: X[8] - 92.31 Y[8] <= 0
 G9: X[9] - 71.18 Y[9] <= 0
 G10: X[10] - 103.93 Y[10] <= 0
 G11: X[11] - 122.99 Y[11] <= 0
 G12: X[12] - 70.12 Y[12] <= 0
 G13: X[13] - 81.17 Y[13] <= 0
 G14: X[14] - 149.51 Y[14] <= 0
 G15: X[15] - 114.99 Y[15] <= 0
 G16: X[16] - 93.81 Y[16] <= 0
 G17: X[17] - 101.76 Y[17] <= 0
 G18: X[18] - 62.1 Y[18] <= 0
 G19: X[19] - 72.47 Y[19] <= 0
 G20: X[20] - 83.81 Y[20] <= 0
 G21: X[21] - 108.83 Y[21] <= 0
 G22: X[22] - 73.01 Y[22] <= 0
 G23: X[23] - 72.02 Y[23] <= 0
 G24: X[24] - 57.1 Y[24] <= 0
 G25: X[25] - 113.11 Y[25] <= 0
 G26: X[26] - 72.89 Y[26] <= 0
 G27: X[27] - 140.54 Y[27] <= 0
 G28: X[28] - 135.96 Y[28] <= 0
 G29: X[29] - 57.09 Y[29] <= 0
 G30: X[30] - 73.8 Y[30] <= 0
 G31: X[31] - 116.9 Y[31] <= 0
 G32: X[32] - 71.42 Y[32] <= 0
 G33: X[33] - 63.23 Y[33] <= 0
 G34: X[34] - 143.55 Y[34] <= 0
 G35: X[35] - 107.1 Y[35] <= 0
 G36: X[36] - 97.27 Y[36] <= 0
 G37: X[37] - 128.46 Y[37] <= 0
 G38: X[38] - 130.75 Y[38] <= 0
 G39: X[39] - 69.04 Y[39] <= 0
 G40: X[40] - 59.69 Y[40] <= 0
 G41: X[41] - 93.11 Y[41] <= 0
 G42: X[42] - 92.36 Y[42] <= 0
 G43: X[43] - 96.7 Y[43] <= 0
 G44: X[44] - 122.91 Y[44] <= 0
 G45: X[45] - 117.34 Y[45] <= 0
 G46: X[46] - 148.42 Y[46] <= 0
 G47: X[47] - 59.84 Y[47] <= 0
 G48: X[48] - 90.26 Y[48] <= 0
 G49: X[49] - 83.93 Y[49] <= 0
 G50: X[50] - 136.17 Y[50] <= 0
 G51: X[51] - 74.87 Y[51] <= 0
 G52: X[52] - 69.02 Y[52] <= 0
 G53: X[53] - 94.86 Y[53] <= 0
 G54: X[54] - 92.19 Y[54] <= 0
 G55: X[55] - 77.85 Y[55] <= 0
 G56: X[56] - 74.98 Y[56] <= 0
 G57: X[57] - 142.33 Y[57] <= 0
 G58: X[58] - 94.31 Y[58] <= 0
 G59: X[59] - 136.13 Y[59] <= 0
 C0: Y[0] + Y[6] + Y[12] + Y[18] + Y[24] + Y[30] + Y[36] + Y[42] + Y[48]
   + Y[54] <= 2
 C1: Y[1] + Y[7] + Y[13] + Y[19] + Y[25] + Y[31] + Y[37] + Y[43] + Y[49]
   + Y[55] <= 2
 C2: Y[2] + Y[8] + Y[14] + Y[20] + Y[26] + Y[32] + Y[38] + Y[44] + Y[50]
   + Y[56] <= 2
 C3: Y[3] + Y[9] + Y[15] + Y[21] + Y[27] + Y[33] + Y[39] + Y[45] + Y[51]
   + Y[57] <= 2
 C4: Y[4] + Y[10] + Y[16] + Y[22] + Y[28] + Y[34] + Y[40] + Y[46] + Y[52]
   + Y[58] <= 3
 C5: Y[5] + Y[11] + Y[17] + Y[23] + Y[29] + Y[35] + Y[41] + Y[47] + Y[53]
   + Y[59] <= 3
Bounds
 X[0] <= 149.51
 X[1] <= 149.51
 X[2] <= 149.51
 X[3] <= 149.51
 X[4] <= 149.51
 X[5] <= 149.51
 X[6] <= 149.51
 X[7] <= 149.51
 X[8] <= 149.51
 X[9] <= 149.51
 X[10] <= 149.51
 X[11] <= 149.51
 X[12] <= 149.51
 X[13] <= 149.51
 X[14] <= 149.51
 X[15] <= 149.51
 X[16] <= 149.51
 X[17] <= 149.51
 X[18] <= 149.51
 X[19] <= 149.51
 X[20] <= 149.51
 X[21] <= 149.51
 X[22] <= 149.51
 X[23] <= 149.51
 X[24] <= 149.51
 X[25] <= 149.51
 X[26] <= 149.51
 X[27] <= 149.51
 X[28] <= 149.51
 X[29] <= 149.51
 X[30] <= 149.51
 X[31] <= 149.51
 X[32] <= 149.51
 X[33] <= 149.51
 X[34] <= 149.51
 X[35] <= 149.51
 X[36] <= 149.51
 X[37] <= 149.51
 X[38] <= 149.51
 X[39] <= 149.51
 X[40] <= 149.51
 X[41] <= 149.51
 X[42] <= 149.51
 X[43] <= 149.51
 X[44] <= 149.51
 X[45] <= 149.51
 X[46] <= 149.51
 X[47] <= 149.51
 X[48] <= 149.51
 X[49] <= 149.51
 X[50] <= 149.51
 X[51] <= 149.51
 X[52] <= 149.51
 X[53] <= 149.51
 X[54] <= 149.51
 X[55] <= 149.51
 X[56] <= 149.51
 X[57] <= 149.51
 X[58] <= 149.51
 X[59] <= 149.51
Binaries
 Y[0] Y[1] Y[2] Y[3] Y[4] Y[5] Y[6] Y[7] Y[8] Y[9] Y[10] Y[11] Y[12] Y[13]
 Y[14] Y[15] Y[16] Y[17] Y[18] Y[19] Y[20] Y[21] Y[22] Y[23] Y[24] Y[25]
 Y[26] Y[27] Y[28] Y[29] Y[30] Y[31] Y[32] Y[33] Y[34] Y[35] Y[36] Y[37]
 Y[38] Y[39] Y[40] Y[41] Y[42] Y[43] Y[44] Y[45] Y[46] Y[47] Y[48] Y[49]
 Y[50] Y[51] Y[52] Y[53] Y[54] Y[55] Y[56] Y[57] Y[58] Y[59]
End
